(set-logic QF_S)
(declare-fun var_0xINPUT_26587 () String)
(assert (and (= (len var_0xINPUT_26587) 0) (= (len var_0xINPUT_26587) 0) (not (= var_0xINPUT_26587 "Example:")) (= (len var_0xINPUT_26587) 0) (not (= var_0xINPUT_26587 "4PH2ujcENG"))))
(check-sat var_0xINPUT_26587)